# Solution for model r5_t36_m0_8 Batch Number: 5
# Finished Task: 28 / 36
# Makespan: 926.0, Total Distance: 547.0, Total Time: 1.8626
# R O S F Batch
0 0 32 0.0 0.0 -1
1 1 25 0.0 0.0 -1
2 2 13 0.0 0.0 -1
3 3 34 0.0 0.0 -1
4 4 27 0.0 0.0 -1
5 2 30 698.0 729.0 0
6 1 16 541.0 580.0 0
7 2 5 260.0 289.0 0
8 4 11 675.0 698.0 0
9 -1 -1 -1.0 -1.0 0
10 3 22 755.0 787.0 2
11 4 15 713.0 747.0 1
12 -1 -1 -1.0 -1.0 3
13 2 14 159.0 193.0 0
14 2 7 215.0 247.0 0
15 4 26 759.0 786.0 2
16 1 23 580.0 616.0 0
17 -1 -1 -1.0 -1.0 0
18 4 8 505.0 540.0 0
19 0 -1 709.0 743.0 3
20 3 21 602.0 640.0 2
21 3 24 662.0 698.0 2
22 3 33 814.0 834.0 3
23 1 37 638.0 668.0 3
24 3 10 716.0 747.0 2
25 1 6 498.0 518.0 0
26 4 36 798.0 822.0 3
27 4 18 462.0 482.0 0
28 -1 -1 -1.0 -1.0 4
29 -1 -1 -1.0 -1.0 4
30 2 40 751.0 778.0 2
31 3 20 530.0 557.0 2
32 0 19 650.0 675.0 0
33 3 -1 892.0 926.0 4
34 3 31 469.0 498.0 0
35 -1 -1 -1.0 -1.0 4
36 4 -1 873.0 901.0 3
37 1 -1 878.0 901.0 4
38 -1 -1 -1.0 -1.0 3
39 -1 -1 -1.0 -1.0 4
40 2 -1 869.0 901.0 4
